c File: data_files/evolved_graphs/g0408.col
c
c Auto generated graph
c
p edge 100 1671
e 1 4
e 1 5
e 1 13
e 1 14
e 1 15
e 1 28
e 1 37
e 1 38
e 1 41
e 1 43
e 1 46
e 1 49
e 1 50
e 1 52
e 1 61
e 1 63
e 1 65
e 1 66
e 1 67
e 1 69
e 1 73
e 1 74
e 1 77
e 1 80
e 1 81
e 1 82
e 1 83
e 1 86
e 1 88
e 1 90
e 1 91
e 1 92
e 1 93
e 1 94
e 1 96
e 1 99
e 2 4
e 2 14
e 2 17
e 2 20
e 2 27
e 2 30
e 2 32
e 2 33
e 2 41
e 2 42
e 2 43
e 2 46
e 2 50
e 2 60
e 2 62
e 2 63
e 2 65
e 2 66
e 2 67
e 2 70
e 2 71
e 2 72
e 2 73
e 2 75
e 2 76
e 2 78
e 2 80
e 2 82
e 2 83
e 2 85
e 2 86
e 2 87
e 2 91
e 2 92
e 2 93
e 2 95
e 2 97
e 2 98
e 2 99
e 3 4
e 3 17
e 3 25
e 3 40
e 3 46
e 3 49
e 3 57
e 3 60
e 3 63
e 3 65
e 3 67
e 3 69
e 3 70
e 3 72
e 3 74
e 3 77
e 3 79
e 3 82
e 3 83
e 3 84
e 3 87
e 3 89
e 3 93
e 3 96
e 3 97
e 3 99
e 3 100
e 4 17
e 4 18
e 4 19
e 4 20
e 4 21
e 4 24
e 4 31
e 4 33
e 4 39
e 4 40
e 4 42
e 4 52
e 4 59
e 4 60
e 4 61
e 4 63
e 4 65
e 4 67
e 4 70
e 4 72
e 4 73
e 4 78
e 4 79
e 4 82
e 4 83
e 4 85
e 4 89
e 4 90
e 4 92
e 4 93
e 4 94
e 5 22
e 5 23
e 5 25
e 5 26
e 5 28
e 5 29
e 5 30
e 5 31
e 5 32
e 5 33
e 5 34
e 5 35
e 5 36
e 5 37
e 5 38
e 5 39
e 5 40
e 5 41
e 5 42
e 5 43
e 5 44
e 5 45
e 5 46
e 5 47
e 5 48
e 5 49
e 5 50
e 5 51
e 5 52
e 5 55
e 5 56
e 5 57
e 5 58
e 5 59
e 5 62
e 5 63
e 5 64
e 5 65
e 5 67
e 5 73
e 5 74
e 5 75
e 5 77
e 5 79
e 5 87
e 6 22
e 6 23
e 6 25
e 6 26
e 6 28
e 6 29
e 6 30
e 6 31
e 6 33
e 6 34
e 6 35
e 6 38
e 6 39
e 6 40
e 6 41
e 6 42
e 6 43
e 6 44
e 6 45
e 6 47
e 6 49
e 6 50
e 6 51
e 6 52
e 6 53
e 6 54
e 6 55
e 6 56
e 6 60
e 6 61
e 6 62
e 6 64
e 6 68
e 6 69
e 6 70
e 6 71
e 6 74
e 6 78
e 6 81
e 6 83
e 6 86
e 6 88
e 6 90
e 6 94
e 6 100
e 7 22
e 7 23
e 7 24
e 7 25
e 7 26
e 7 27
e 7 28
e 7 29
e 7 30
e 7 32
e 7 33
e 7 34
e 7 35
e 7 36
e 7 37
e 7 38
e 7 39
e 7 40
e 7 41
e 7 42
e 7 43
e 7 44
e 7 45
e 7 49
e 7 50
e 7 51
e 7 52
e 7 53
e 7 54
e 7 55
e 7 56
e 7 57
e 7 58
e 7 59
e 7 60
e 7 61
e 7 62
e 7 63
e 7 64
e 7 66
e 7 68
e 7 74
e 7 75
e 7 76
e 7 77
e 7 82
e 7 85
e 7 86
e 7 88
e 7 91
e 7 92
e 7 93
e 7 96
e 8 22
e 8 23
e 8 24
e 8 25
e 8 26
e 8 27
e 8 28
e 8 29
e 8 30
e 8 31
e 8 32
e 8 34
e 8 35
e 8 36
e 8 38
e 8 39
e 8 40
e 8 41
e 8 42
e 8 43
e 8 44
e 8 45
e 8 46
e 8 47
e 8 48
e 8 49
e 8 50
e 8 51
e 8 52
e 8 53
e 8 54
e 8 57
e 8 58
e 8 59
e 8 60
e 8 62
e 8 63
e 8 64
e 8 65
e 8 66
e 8 71
e 8 79
e 8 84
e 8 86
e 8 89
e 8 91
e 8 94
e 8 95
e 8 96
e 8 98
e 9 22
e 9 23
e 9 24
e 9 25
e 9 26
e 9 27
e 9 28
e 9 29
e 9 30
e 9 31
e 9 32
e 9 33
e 9 34
e 9 35
e 9 36
e 9 37
e 9 39
e 9 40
e 9 41
e 9 42
e 9 43
e 9 44
e 9 45
e 9 46
e 9 47
e 9 48
e 9 49
e 9 50
e 9 51
e 9 52
e 9 53
e 9 54
e 9 55
e 9 56
e 9 57
e 9 58
e 9 59
e 9 60
e 9 61
e 9 64
e 9 69
e 9 71
e 9 82
e 9 85
e 9 87
e 9 89
e 9 91
e 9 93
e 9 98
e 10 22
e 10 23
e 10 25
e 10 26
e 10 27
e 10 28
e 10 30
e 10 31
e 10 32
e 10 33
e 10 35
e 10 36
e 10 37
e 10 38
e 10 40
e 10 42
e 10 43
e 10 44
e 10 45
e 10 46
e 10 47
e 10 48
e 10 49
e 10 50
e 10 52
e 10 53
e 10 54
e 10 55
e 10 56
e 10 59
e 10 60
e 10 61
e 10 63
e 10 64
e 10 67
e 10 68
e 10 73
e 10 76
e 10 78
e 10 80
e 10 82
e 10 83
e 10 84
e 10 87
e 10 90
e 10 91
e 10 92
e 10 93
e 10 96
e 10 98
e 10 99
e 11 22
e 11 23
e 11 24
e 11 26
e 11 27
e 11 28
e 11 29
e 11 30
e 11 31
e 11 32
e 11 34
e 11 35
e 11 36
e 11 37
e 11 40
e 11 41
e 11 42
e 11 43
e 11 44
e 11 45
e 11 46
e 11 47
e 11 48
e 11 50
e 11 51
e 11 54
e 11 55
e 11 56
e 11 57
e 11 58
e 11 59
e 11 60
e 11 61
e 11 62
e 11 63
e 11 64
e 11 65
e 11 66
e 11 68
e 11 72
e 11 74
e 11 82
e 11 84
e 11 88
e 11 89
e 11 97
e 11 100
e 12 23
e 12 24
e 12 25
e 12 27
e 12 29
e 12 31
e 12 32
e 12 33
e 12 34
e 12 35
e 12 36
e 12 37
e 12 38
e 12 39
e 12 40
e 12 41
e 12 42
e 12 43
e 12 44
e 12 45
e 12 46
e 12 50
e 12 51
e 12 52
e 12 53
e 12 54
e 12 55
e 12 57
e 12 58
e 12 59
e 12 60
e 12 61
e 12 62
e 12 63
e 12 64
e 12 66
e 12 74
e 12 79
e 12 81
e 12 85
e 12 86
e 12 88
e 12 91
e 12 92
e 12 97
e 12 98
e 13 22
e 13 23
e 13 25
e 13 26
e 13 27
e 13 29
e 13 31
e 13 32
e 13 33
e 13 34
e 13 35
e 13 37
e 13 38
e 13 40
e 13 41
e 13 42
e 13 43
e 13 45
e 13 46
e 13 47
e 13 48
e 13 49
e 13 50
e 13 51
e 13 52
e 13 54
e 13 55
e 13 56
e 13 57
e 13 58
e 13 59
e 13 60
e 13 61
e 13 63
e 13 64
e 13 66
e 13 69
e 13 70
e 13 71
e 13 72
e 13 74
e 13 76
e 13 78
e 13 81
e 13 83
e 13 85
e 13 86
e 13 89
e 13 90
e 13 91
e 13 95
e 13 99
e 13 100
e 14 22
e 14 23
e 14 24
e 14 26
e 14 27
e 14 28
e 14 29
e 14 30
e 14 31
e 14 32
e 14 33
e 14 34
e 14 35
e 14 37
e 14 43
e 14 44
e 14 45
e 14 46
e 14 47
e 14 48
e 14 49
e 14 50
e 14 52
e 14 53
e 14 54
e 14 55
e 14 56
e 14 57
e 14 58
e 14 59
e 14 60
e 14 61
e 14 62
e 14 63
e 14 64
e 14 66
e 14 68
e 14 71
e 14 74
e 14 75
e 14 80
e 14 85
e 14 87
e 14 89
e 14 91
e 14 92
e 14 93
e 14 95
e 14 96
e 14 98
e 14 99
e 15 22
e 15 25
e 15 26
e 15 27
e 15 28
e 15 29
e 15 30
e 15 31
e 15 33
e 15 34
e 15 35
e 15 36
e 15 37
e 15 38
e 15 39
e 15 40
e 15 41
e 15 42
e 15 43
e 15 44
e 15 45
e 15 46
e 15 47
e 15 48
e 15 49
e 15 51
e 15 52
e 15 53
e 15 54
e 15 55
e 15 56
e 15 57
e 15 58
e 15 59
e 15 60
e 15 61
e 15 62
e 15 63
e 15 68
e 15 69
e 15 71
e 15 73
e 15 75
e 15 76
e 15 82
e 15 85
e 15 87
e 15 90
e 15 95
e 15 100
e 16 22
e 16 23
e 16 24
e 16 25
e 16 26
e 16 27
e 16 28
e 16 29
e 16 31
e 16 32
e 16 35
e 16 36
e 16 37
e 16 38
e 16 39
e 16 40
e 16 41
e 16 42
e 16 43
e 16 44
e 16 45
e 16 46
e 16 47
e 16 48
e 16 49
e 16 50
e 16 51
e 16 52
e 16 53
e 16 54
e 16 55
e 16 58
e 16 59
e 16 60
e 16 63
e 16 64
e 16 65
e 16 66
e 16 67
e 16 68
e 16 71
e 16 79
e 16 81
e 16 83
e 16 84
e 16 87
e 16 88
e 16 91
e 16 99
e 16 100
e 17 22
e 17 23
e 17 24
e 17 25
e 17 26
e 17 27
e 17 28
e 17 30
e 17 31
e 17 32
e 17 35
e 17 38
e 17 39
e 17 40
e 17 41
e 17 42
e 17 43
e 17 44
e 17 46
e 17 47
e 17 48
e 17 49
e 17 50
e 17 51
e 17 52
e 17 53
e 17 54
e 17 55
e 17 56
e 17 58
e 17 59
e 17 60
e 17 61
e 17 62
e 17 63
e 17 64
e 17 66
e 17 68
e 17 73
e 17 74
e 17 78
e 17 82
e 17 86
e 17 87
e 17 88
e 17 92
e 17 97
e 18 22
e 18 23
e 18 24
e 18 25
e 18 26
e 18 28
e 18 29
e 18 30
e 18 31
e 18 32
e 18 33
e 18 35
e 18 37
e 18 39
e 18 40
e 18 41
e 18 43
e 18 44
e 18 45
e 18 46
e 18 47
e 18 48
e 18 49
e 18 51
e 18 52
e 18 53
e 18 54
e 18 55
e 18 56
e 18 57
e 18 58
e 18 59
e 18 60
e 18 62
e 18 63
e 18 64
e 18 67
e 18 72
e 18 74
e 18 77
e 18 81
e 18 84
e 18 86
e 18 87
e 18 89
e 18 90
e 18 91
e 18 92
e 18 94
e 18 96
e 19 22
e 19 24
e 19 28
e 19 29
e 19 30
e 19 31
e 19 32
e 19 33
e 19 34
e 19 35
e 19 36
e 19 37
e 19 38
e 19 39
e 19 40
e 19 41
e 19 43
e 19 44
e 19 47
e 19 48
e 19 50
e 19 51
e 19 52
e 19 53
e 19 54
e 19 55
e 19 56
e 19 57
e 19 58
e 19 59
e 19 60
e 19 61
e 19 62
e 19 64
e 19 68
e 19 73
e 19 74
e 19 79
e 19 85
e 19 86
e 19 90
e 19 92
e 19 94
e 19 95
e 19 97
e 19 100
e 20 22
e 20 24
e 20 25
e 20 26
e 20 27
e 20 28
e 20 29
e 20 30
e 20 31
e 20 32
e 20 35
e 20 37
e 20 39
e 20 40
e 20 43
e 20 44
e 20 45
e 20 46
e 20 48
e 20 50
e 20 51
e 20 52
e 20 54
e 20 55
e 20 56
e 20 57
e 20 58
e 20 59
e 20 61
e 20 62
e 20 63
e 20 64
e 20 65
e 20 66
e 20 69
e 20 71
e 20 72
e 20 75
e 20 77
e 20 80
e 20 82
e 20 85
e 20 88
e 20 90
e 20 92
e 20 93
e 20 94
e 21 22
e 21 23
e 21 25
e 21 26
e 21 27
e 21 28
e 21 29
e 21 30
e 21 31
e 21 32
e 21 33
e 21 35
e 21 36
e 21 37
e 21 38
e 21 40
e 21 41
e 21 42
e 21 43
e 21 44
e 21 45
e 21 46
e 21 47
e 21 48
e 21 49
e 21 51
e 21 52
e 21 53
e 21 55
e 21 56
e 21 57
e 21 58
e 21 59
e 21 60
e 21 62
e 21 63
e 21 69
e 21 72
e 21 73
e 21 74
e 21 75
e 21 77
e 21 81
e 21 82
e 21 83
e 21 86
e 21 95
e 21 97
e 21 100
e 22 25
e 22 26
e 22 27
e 22 28
e 22 29
e 22 30
e 22 31
e 22 32
e 22 33
e 22 34
e 22 35
e 22 36
e 22 37
e 22 38
e 22 39
e 22 40
e 22 41
e 22 42
e 22 43
e 22 44
e 22 45
e 22 46
e 22 47
e 22 48
e 22 49
e 22 50
e 22 51
e 22 52
e 22 53
e 22 54
e 22 55
e 22 56
e 22 57
e 22 58
e 22 59
e 22 60
e 22 61
e 22 62
e 22 63
e 22 64
e 22 65
e 22 67
e 22 70
e 22 71
e 22 72
e 22 73
e 22 74
e 22 80
e 22 85
e 22 92
e 22 93
e 22 95
e 23 25
e 23 26
e 23 27
e 23 28
e 23 29
e 23 30
e 23 31
e 23 32
e 23 33
e 23 34
e 23 35
e 23 36
e 23 37
e 23 38
e 23 39
e 23 40
e 23 41
e 23 42
e 23 43
e 23 44
e 23 45
e 23 47
e 23 48
e 23 49
e 23 50
e 23 51
e 23 52
e 23 53
e 23 54
e 23 55
e 23 56
e 23 57
e 23 58
e 23 59
e 23 60
e 23 61
e 23 62
e 23 63
e 23 64
e 23 65
e 23 67
e 23 68
e 23 70
e 23 73
e 23 80
e 23 82
e 23 86
e 23 88
e 23 91
e 23 94
e 23 98
e 24 25
e 24 26
e 24 27
e 24 28
e 24 29
e 24 30
e 24 31
e 24 32
e 24 33
e 24 34
e 24 35
e 24 36
e 24 37
e 24 38
e 24 39
e 24 40
e 24 41
e 24 42
e 24 43
e 24 44
e 24 45
e 24 46
e 24 47
e 24 48
e 24 49
e 24 50
e 24 51
e 24 52
e 24 53
e 24 54
e 24 55
e 24 56
e 24 57
e 24 58
e 24 59
e 24 60
e 24 61
e 24 62
e 24 63
e 24 64
e 24 66
e 24 69
e 24 70
e 24 71
e 24 73
e 24 74
e 24 79
e 24 81
e 24 84
e 24 86
e 24 87
e 24 88
e 24 90
e 24 91
e 24 94
e 24 95
e 24 98
e 25 60
e 25 64
e 25 67
e 25 69
e 25 70
e 25 73
e 25 76
e 25 78
e 25 79
e 25 81
e 25 87
e 25 89
e 25 94
e 25 97
e 25 100
e 26 60
e 26 64
e 26 66
e 26 68
e 26 71
e 26 72
e 26 74
e 26 75
e 26 77
e 26 78
e 26 80
e 26 83
e 26 87
e 26 88
e 26 90
e 26 92
e 26 94
e 26 95
e 26 97
e 26 98
e 26 100
e 27 60
e 27 64
e 27 67
e 27 69
e 27 71
e 27 72
e 27 74
e 27 76
e 27 77
e 27 78
e 27 80
e 27 81
e 27 84
e 27 85
e 27 86
e 27 88
e 27 90
e 27 92
e 27 93
e 27 97
e 27 98
e 28 71
e 28 76
e 28 82
e 28 84
e 28 87
e 28 90
e 28 92
e 28 93
e 28 94
e 28 96
e 28 97
e 28 99
e 29 67
e 29 77
e 29 79
e 29 80
e 29 81
e 29 82
e 29 86
e 29 90
e 29 93
e 29 94
e 29 96
e 29 98
e 30 65
e 30 66
e 30 67
e 30 69
e 30 70
e 30 73
e 30 75
e 30 77
e 30 81
e 30 82
e 30 83
e 30 84
e 30 87
e 30 88
e 30 90
e 30 93
e 30 96
e 30 100
e 31 65
e 31 68
e 31 72
e 31 74
e 31 75
e 31 87
e 31 88
e 31 90
e 31 91
e 31 92
e 31 93
e 31 94
e 31 98
e 31 99
e 32 70
e 32 71
e 32 72
e 32 73
e 32 79
e 32 83
e 32 85
e 32 90
e 32 93
e 32 94
e 32 96
e 32 97
e 32 100
e 33 65
e 33 67
e 33 68
e 33 69
e 33 70
e 33 76
e 33 77
e 33 80
e 33 82
e 33 84
e 33 86
e 33 87
e 33 88
e 33 90
e 33 91
e 33 93
e 33 94
e 33 97
e 33 98
e 33 99
e 34 66
e 34 68
e 34 72
e 34 74
e 34 78
e 34 79
e 34 80
e 34 81
e 34 82
e 34 85
e 34 88
e 34 89
e 34 91
e 34 93
e 34 94
e 34 95
e 34 100
e 35 67
e 35 69
e 35 70
e 35 71
e 35 75
e 35 76
e 35 79
e 35 80
e 35 81
e 35 82
e 35 83
e 35 86
e 35 88
e 35 89
e 35 90
e 35 91
e 35 92
e 35 94
e 35 95
e 36 66
e 36 67
e 36 68
e 36 69
e 36 77
e 36 80
e 36 83
e 36 84
e 36 86
e 36 88
e 36 90
e 36 94
e 36 96
e 36 97
e 36 100
e 37 68
e 37 71
e 37 76
e 37 78
e 37 79
e 37 81
e 37 82
e 37 88
e 37 89
e 37 90
e 37 91
e 37 95
e 37 100
e 38 67
e 38 69
e 38 70
e 38 76
e 38 77
e 38 78
e 38 80
e 38 82
e 38 87
e 38 94
e 38 96
e 38 97
e 38 100
e 39 66
e 39 67
e 39 69
e 39 72
e 39 76
e 39 80
e 39 82
e 39 83
e 39 84
e 39 86
e 39 88
e 39 89
e 39 91
e 39 92
e 39 93
e 39 94
e 39 97
e 40 67
e 40 74
e 40 76
e 40 77
e 40 82
e 40 85
e 40 86
e 40 89
e 40 91
e 40 95
e 40 96
e 40 98
e 40 99
e 40 100
e 41 65
e 41 67
e 41 69
e 41 70
e 41 71
e 41 72
e 41 74
e 41 76
e 41 77
e 41 78
e 41 79
e 41 80
e 41 83
e 41 84
e 41 86
e 41 90
e 41 91
e 41 96
e 41 98
e 42 65
e 42 66
e 42 77
e 42 81
e 42 82
e 42 84
e 42 86
e 42 87
e 42 91
e 42 93
e 42 95
e 43 74
e 43 78
e 43 79
e 43 81
e 43 82
e 43 85
e 43 89
e 43 90
e 43 93
e 43 95
e 43 96
e 43 97
e 43 100
e 44 65
e 44 68
e 44 71
e 44 73
e 44 75
e 44 76
e 44 77
e 44 85
e 44 86
e 44 89
e 44 90
e 44 94
e 44 95
e 44 96
e 45 66
e 45 67
e 45 68
e 45 69
e 45 70
e 45 71
e 45 74
e 45 75
e 45 78
e 45 84
e 45 86
e 45 89
e 45 95
e 45 96
e 46 65
e 46 66
e 46 71
e 46 76
e 46 78
e 46 82
e 46 83
e 46 84
e 46 86
e 46 89
e 46 90
e 46 92
e 46 93
e 46 95
e 47 65
e 47 67
e 47 68
e 47 69
e 47 70
e 47 73
e 47 76
e 47 79
e 47 83
e 47 86
e 47 87
e 47 92
e 47 98
e 48 65
e 48 66
e 48 67
e 48 70
e 48 82
e 48 83
e 48 85
e 48 86
e 48 87
e 48 91
e 48 99
e 49 69
e 49 72
e 49 74
e 49 82
e 49 85
e 49 87
e 49 91
e 49 95
e 49 98
e 50 69
e 50 70
e 50 72
e 50 74
e 50 75
e 50 77
e 50 80
e 50 83
e 50 87
e 50 88
e 50 89
e 50 90
e 50 91
e 50 93
e 51 65
e 51 66
e 51 69
e 51 70
e 51 71
e 51 73
e 51 76
e 51 77
e 51 81
e 51 89
e 51 95
e 51 96
e 51 97
e 51 98
e 52 66
e 52 67
e 52 70
e 52 71
e 52 73
e 52 74
e 52 75
e 52 82
e 52 84
e 52 86
e 52 87
e 52 90
e 52 91
e 52 94
e 52 98
e 52 99
e 53 65
e 53 68
e 53 70
e 53 71
e 53 75
e 53 82
e 53 83
e 53 84
e 53 87
e 53 92
e 53 94
e 53 98
e 53 99
e 53 100
e 54 66
e 54 67
e 54 69
e 54 70
e 54 72
e 54 75
e 54 77
e 54 78
e 54 79
e 54 85
e 54 86
e 54 87
e 54 89
e 54 94
e 54 96
e 54 97
e 54 98
e 54 99
e 54 100
e 55 66
e 55 67
e 55 68
e 55 69
e 55 70
e 55 74
e 55 76
e 55 77
e 55 78
e 55 81
e 55 85
e 55 86
e 55 95
e 55 97
e 55 100
e 56 66
e 56 68
e 56 75
e 56 76
e 56 80
e 56 81
e 56 84
e 56 85
e 56 87
e 56 89
e 56 97
e 56 99
e 57 65
e 57 69
e 57 70
e 57 72
e 57 76
e 57 80
e 57 82
e 57 85
e 57 86
e 57 87
e 57 88
e 57 90
e 57 94
e 57 99
e 58 65
e 58 66
e 58 67
e 58 70
e 58 71
e 58 73
e 58 74
e 58 75
e 58 76
e 58 80
e 58 82
e 58 84
e 58 86
e 58 87
e 58 88
e 58 92
e 58 94
e 58 95
e 58 97
e 58 98
e 58 100
e 59 67
e 59 70
e 59 71
e 59 73
e 59 74
e 59 75
e 59 76
e 59 77
e 59 82
e 59 86
e 59 87
e 59 90
e 59 92
e 59 93
e 59 95
e 59 97
e 59 99
e 60 66
e 60 67
e 60 68
e 60 70
e 60 73
e 60 75
e 60 76
e 60 78
e 60 79
e 60 80
e 60 81
e 60 83
e 60 84
e 60 85
e 60 91
e 60 94
e 60 97
e 70 89
e 73 76
e 73 91
e 77 78
